
Gurobi 11.0.1 (win64) logging started Thu May 16 18:40:12 2024

Set parameter LogFile to value "output/solver_log8.txt"
Gurobi Optimizer version 11.0.1 build v11.0.1rc0 (win64 - Windows 11.0 (22631.2))

CPU model: 11th Gen Intel(R) Core(TM) i7-1165G7 @ 2.80GHz, instruction set [SSE2|AVX|AVX2|AVX512]
Thread count: 4 physical cores, 8 logical processors, using up to 8 threads

Optimize a model with 5542 rows, 1395 columns and 104941 nonzeros
Model fingerprint: 0x018be1a0
Variable types: 568 continuous, 827 integer (827 binary)
Coefficient statistics:
  Matrix range     [4e-01, 1e+05]
  Objective range  [1e+00, 1e+02]
  Bounds range     [1e+00, 1e+00]
  RHS range        [1e-02, 1e+05]

User MIP start produced solution with objective 40134.7 (0.01s)
User MIP start produced solution with objective 40134.7 (0.01s)
Loaded user MIP start with objective 40134.7

Presolve removed 1006 rows and 522 columns
Presolve time: 0.13s
Presolved: 4536 rows, 873 columns, 86830 nonzeros
Variable types: 524 continuous, 349 integer (345 binary)

Root relaxation: objective 5.114240e+04, 1879 iterations, 0.15 seconds (0.26 work units)

    Nodes    |    Current Node    |     Objective Bounds      |     Work
 Expl Unexpl |  Obj  Depth IntInf | Incumbent    BestBd   Gap | It/Node Time

     0     0 51142.3982    0   78 40134.6549 51142.3982  27.4%     -    0s
     0     0 50558.3909    0  117 40134.6549 50558.3909  26.0%     -    0s
     0     0 50411.9582    0  116 40134.6549 50411.9582  25.6%     -    0s
     0     0 50411.9582    0   81 40134.6549 50411.9582  25.6%     -    0s
     0     0 50317.7560    0  100 40134.6549 50317.7560  25.4%     -    1s
     0     0 50315.4021    0   92 40134.6549 50315.4021  25.4%     -    1s
     0     0 50314.9526    0   88 40134.6549 50314.9526  25.4%     -    1s
     0     0 50314.9526    0   88 40134.6549 50314.9526  25.4%     -    1s
     0     0 49935.8244    0  103 40134.6549 49935.8244  24.4%     -    1s
     0     0 49803.1714    0  113 40134.6549 49803.1714  24.1%     -    1s
     0     0 49803.1714    0  119 40134.6549 49803.1714  24.1%     -    1s
     0     0 49803.1714    0  120 40134.6549 49803.1714  24.1%     -    1s
     0     0 49326.8248    0  103 40134.6549 49326.8248  22.9%     -    2s
     0     0 49212.2181    0   96 40134.6549 49212.2181  22.6%     -    2s
     0     0 49206.3665    0   97 40134.6549 49206.3665  22.6%     -    2s
     0     0 49206.3626    0   99 40134.6549 49206.3626  22.6%     -    2s
     0     0 49203.4225    0  100 40134.6549 49203.4225  22.6%     -    2s
     0     0 49192.0257    0  104 40134.6549 49192.0257  22.6%     -    2s
     0     0 49192.0257    0  107 40134.6549 49192.0257  22.6%     -    2s
     0     0 49192.0257    0  101 40134.6549 49192.0257  22.6%     -    2s
     0     0 49192.0257    0  101 40134.6549 49192.0257  22.6%     -    3s
     0     0 49136.2892    0  114 40134.6549 49136.2892  22.4%     -    3s
     0     0 49136.2892    0  117 40134.6549 49136.2892  22.4%     -    3s
     0     0 49136.2892    0  108 40134.6549 49136.2892  22.4%     -    3s
     0     0 49136.2892    0  105 40134.6549 49136.2892  22.4%     -    3s
     0     0 49136.2892    0  111 40134.6549 49136.2892  22.4%     -    3s
     0     0 49136.2892    0  111 40134.6549 49136.2892  22.4%     -    3s
     0     0 49136.2892    0  104 40134.6549 49136.2892  22.4%     -    4s
     0     0 49136.2892    0  111 40134.6549 49136.2892  22.4%     -    4s
     0     0 49136.2892    0  107 40134.6549 49136.2892  22.4%     -    4s
     0     0 49063.5502    0  103 40134.6549 49063.5502  22.2%     -    4s
     0     0 49062.0088    0  111 40134.6549 49062.0088  22.2%     -    4s
     0     0 49061.4934    0  105 40134.6549 49061.4934  22.2%     -    4s
     0     0 49061.4448    0  105 40134.6549 49061.4448  22.2%     -    4s
     0     0 48990.0648    0  110 40134.6549 48990.0648  22.1%     -    5s
     0     0 48970.9146    0  105 40134.6549 48970.9146  22.0%     -    5s
     0     0 48965.8921    0  105 40134.6549 48965.8921  22.0%     -    5s
     0     0 48961.2638    0  102 40134.6549 48961.2638  22.0%     -    5s
     0     0 48960.8319    0  103 40134.6549 48960.8319  22.0%     -    5s
     0     0 48960.4594    0  101 40134.6549 48960.4594  22.0%     -    5s
     0     0 48960.0450    0   98 40134.6549 48960.0450  22.0%     -    5s
     0     0 48960.0450    0   98 40134.6549 48960.0450  22.0%     -    5s
     0     0 48878.4284    0  110 40134.6549 48878.4284  21.8%     -    6s
     0     0 48874.1352    0  109 40134.6549 48874.1352  21.8%     -    6s
     0     0 48873.2662    0  115 40134.6549 48873.2662  21.8%     -    6s
     0     0 48873.2649    0  115 40134.6549 48873.2649  21.8%     -    6s
     0     0 48870.5074    0  122 40134.6549 48870.5074  21.8%     -    6s
     0     0 48870.1312    0  121 40134.6549 48870.1312  21.8%     -    6s
     0     0 48870.0718    0  124 40134.6549 48870.0718  21.8%     -    6s
     0     0 48861.2645    0  115 40134.6549 48861.2645  21.7%     -    6s
     0     0 48858.5602    0  118 40134.6549 48858.5602  21.7%     -    6s
     0     0 48858.5602    0  114 40134.6549 48858.5602  21.7%     -    7s
     0     0 48858.3768    0  108 40134.6549 48858.3768  21.7%     -    7s
     0     0 48858.3768    0  114 40134.6549 48858.3768  21.7%     -    7s
     0     0 48857.8339    0  130 40134.6549 48857.8339  21.7%     -    7s
     0     0 48840.3722    0  130 40134.6549 48840.3722  21.7%     -    7s
     0     2 48840.3722    0  130 40134.6549 48840.3722  21.7%     -    8s
    27    32 45219.3595    7   82 40134.6549 48681.7870  21.3%  1050   10s
H   61    68                    40136.123393 48681.7870  21.3%   866   11s
   169   110 40274.5780   14  101 40136.1234 45602.2594  13.6%   770   15s
H  197   122                    40137.297010 45602.2594  13.6%   774   15s
H  226   123                    40137.409448 45602.2594  13.6%   739   16s
H  235   123                    40137.873632 45602.2594  13.6%   731   16s
   357   149 43034.3634    6   68 40137.8736 45486.7227  13.3%   731   20s
H  404   147                    40138.049708 45254.6038  12.7%   726   22s
H  409   147                    40138.055632 45254.6038  12.7%   727   22s
H  412   147                    40139.373356 45254.6038  12.7%   733   22s
H  493   152                    40139.529660 45150.7266  12.5%   716   24s
   502   162 42496.5784   10   74 40139.5297 45134.3423  12.4%   717   25s
H  743   158                    40143.240890 43491.5685  8.34%   693   29s
   771   149 40677.2954   11   79 40143.2409 43312.0668  7.89%   691   30s
   950   143     cutoff   13      40143.2409 42964.0876  7.03%   662   39s
H 1018   143                    40151.979474 42804.9102  6.61%   645   39s
  1019   142 40665.9367   10   55 40151.9795 42658.6694  6.24%   647   40s
  1397   160 40168.2168   12   47 40151.9795 41250.3088  2.74%   605   45s
H 1603   183                    40155.443315 41076.5392  2.29%   558   47s
* 1992   470             128    40156.153855 40440.0716  0.71%   470   48s
  2516   903 40188.9163   55   79 40156.1539 40440.0716  0.71%   379   50s
  3020   904 infeasible   86      40156.1539 40440.0716  0.71%   320   56s
  5056  1793 40167.4846   92   23 40156.1539 40190.8035  0.09%   200   60s

Cutting planes:
  Gomory: 3
  Implied bound: 20
  MIR: 155
  RLT: 13
  Relax-and-lift: 5
  BQP: 1

Explored 5996 nodes (1055879 simplex iterations) in 60.03 seconds (138.28 work units)
Thread count was 8 (of 8 available processors)

Solution count 10: 40156.2 40155.4 40152 ... 40137.4

Time limit reached
Warning: max constraint violation (3.2588e-06) exceeds tolerance
Best objective 4.015615385452e+04, best bound 4.019079981639e+04, gap 0.0863%
